(set-info :smt-lib-version 2.8)
(set-logic QF_EIA)
(set-info :source |
Generated by: Florian Frohn
Generator: LoAT
Application: proving lower bounds on the worst-case runtime of transition systems
Target solver: SwInE
Time limit: 1.0
Benchmarks generated by the verification tool LoAT to evaluate the SMT solver
SwInE. We extracted all benchmarks with exponentiation that were generated by
LoAT when analyzing the examples from the category LIA-Lin (linear CHCs with
linear integer arithmetic) of the CHC competitions 2022 and 2023, and when
analyzing the examples from the categories "Termination of Integer Transition
Systems" and "Complexity of Integer Transition Systems" of the Termination and
Complexity Competition 2024. From the entire set, we selected those where
* SwInE v0.1.0 or SwInE-Z3 v0.1.2 failed or needed more than 1 second, or
* SwInE-Z3 v0.1.2 failed without phasing, a technique to prevent SwInE from
  computing with huge constants (described here
  https://arxiv.org/abs/2502.04761)
If several selected benchmarks only differed in lines not containing
exponentiation, we kept only one of them. This benchmark is known to be
satisfiable with the slightly different semantics of exponentiation used by the
versions of SwInE mentioned above.
|)
(set-info :license "https://creativecommons.org/licenses/by/4.0/")
(set-info :category "industrial")
(set-info :status unknown)

(declare-fun i1 () Int)
(declare-fun i7 () Int)
(declare-fun i3 () Int)
(declare-fun it1 () Int)
(declare-fun it2 () Int)
(declare-fun i2 () Int)
(declare-fun it3 () Int)
(declare-fun it4 () Int)
(declare-fun i4 () Int)
(declare-fun it5 () Int)
(declare-fun i5 () Int)
(declare-fun it6 () Int)
(declare-fun i6 () Int)
(declare-fun it7 () Int)
(declare-fun it120 () Int)
(declare-fun it184 () Int)
(declare-fun it185 () Int)
(declare-fun it186 () Int)
(declare-fun it187 () Int)
(declare-fun it188 () Int)
(declare-fun it189 () Int)
(declare-fun it190 () Int)
(declare-fun it209 () Int)
(declare-fun it210 () Int)
(declare-fun it211 () Int)
(declare-fun it212 () Int)
(declare-fun it213 () Int)
(declare-fun it214 () Int)
(declare-fun it215 () Int)
(declare-fun it264 () Int)
(declare-fun it265 () Int)
(declare-fun it266 () Int)
(declare-fun it267 () Int)
(declare-fun it268 () Int)
(declare-fun it269 () Int)
(declare-fun it270 () Int)
(declare-fun it271 () Int)
(assert (and (> i3 0) (> i7 0) (= (+ i1 (- 1)) 0)))
(assert (= (+ it1 (- 2)) 0))
(assert (= (+ (* i2 (- 1)) it2 (- 1)) 0))
(assert (= (+ (* i3 (- 1)) it3) 0))
(assert (= (+ (* i4 (- 1)) it4) 0))
(assert (= (+ (* i5 (- 1)) it5) 0))
(assert (= (+ (* i6 (- 1)) it6) 0))
(assert (= (+ it7 (* i7 (- 1))) 0))
(assert (let ((a!1 (> (+ (+ it3 (* it120 (- 2))) 2) 0))
      (a!2 (> (+ (+ it3 (* it120 (- 2))) 1) 0)))
  (and (>= (+ (* it1 (- 1)) 2) 0)
       a!1
       (>= (+ it1 (- 2)) 0)
       a!2
       (>= (+ it120 (- 1)) 0))))
(assert (= (+ (* it1 (- 1)) it184) 0))
(assert (= (+ it185 (* it2 (- 1)) (* it120 (- 2))) 0))
(assert (= (+ it186 (* it3 (- 1)) (* it120 2)) 0))
(assert (= (+ (* (+ 0 it4) (** (- 1) it120) (+ 0 (- 1))) (+ 0 it187))
   (+ 0 0)))
(assert (= (+ (* (+ 0 it5) (** (- 1) it120) (+ 0 (- 1))) (+ 0 it188))
   (+ 0 0)))
(assert (= (+ (* (** it3 2) (+ 0 it120) (+ 0 (- 6)))
      (+ 0 (* it189 3))
      (* (** it120 2) (+ 0 6))
      (* (** it120 3) (+ 0 (- 8)))
      (* (+ 0 it3) (** it120 2) (+ 0 12))
      (+ 0 (* it3 it120 (- 6)))
      (+ 0 (* it6 (- 3)))
      (+ 0 (* it120 (- 1))))
   (+ 0 0)))
(assert (= (+ (* it7 (- 1)) it190) 0))
(assert (= (+ it184 (- 2)) 0))
(assert (= (+ it209 (- 3)) 0))
(assert (= (+ (* it185 (- 1)) it210 (- 1)) 0))
(assert (= (+ (* it186 (- 1)) it211) 0))
(assert (= (+ it212 (* it187 (- 1))) 0))
(assert (= (+ it213 (* it188 (- 1))) 0))
(assert (= (+ (* it189 (- 1)) it214) 0))
(assert (= (+ it215 (* it190 (- 1))) 0))
(assert (and (>= (+ it209 (- 3)) 0)
     (>= (+ (* it209 (- 1)) 3) 0)
     (>= (+ it264 (- 1)) 0)
     (> (+ it212 (* it264 (- 2)) it214 2) 0)))
(assert (= (+ (* it209 (- 1)) it265) 0))
(assert (= (+ it266 (* it210 (- 1)) (* it264 (- 1))) 0))
(assert (= (+ it267 (* it211 (- 1))) 0))
(assert (= (+ (* it212 (- 1)) it268 it264) 0))
(assert (= (+ it269 (* it213 (- 1))) 0))
(assert (= (+ it270 it264 (* it214 (- 1))) 0))
(assert (= (+ (* it215 (- 1)) it271) 0))
(check-sat)
(exit)
